NAME : random_13
COMMENT : 60 random nodes
TYPE : TSP
DIMENSION : 60
EDGE_WEIGHT_TYPE : EUC_2D
NODE_COORD_SECTION
1 970 516
2 592 149
3 307 738
4 538 136
5 877 61
6 858 341
7 378 933
8 152 953
9 747 641
10 579 486
11 429 246
12 655 279
13 290 967
14 577 474
15 591 40
16 826 676
17 138 526
18 459 305
19 919 84
20 671 739
21 939 713
22 50 830
23 299 582
24 563 545
25 220 624
26 240 416
27 82 703
28 903 920
29 916 388
30 317 887
31 212 530
32 633 247
33 510 813
34 418 792
35 396 948
36 1000 460
37 722 550
38 609 136
39 759 406
40 957 591
41 835 559
42 571 205
43 356 717
44 954 667
45 761 613
46 427 530
47 702 214
48 729 807
49 94 239
50 812 107
51 601 307
52 639 712
53 184 366
54 25 295
55 366 204
56 279 93
57 727 819
58 220 699
59 753 128
60 412 487
EOF